WARNING: for repeatability, setting FPU to use double precision
============================[ Problem Statistics ]=============================
|                                                                             |
|  Number of variables:           100                                         |
|  Number of clauses:             449                                         |
|  Parse time:                   0.00 s                                       |
|  Eliminated clauses:           0.00 Mb                                      |
|  Simplification time:          0.00 s                                       |
|                                                                             |
============================[ Search Statistics ]==============================
| Conflicts |          ORIGINAL         |          LEARNT          | Progress |
|           |    Vars  Clauses Literals |    Limit  Clauses Lit/Cl |          |
===============================================================================
|       100 |      98      445     1346 |      163      100      9 |  0.010 % |
|       250 |      98      445     1346 |      179      167      7 |  0.010 % |
===============================================================================
restarts              : 3
conflicts             : 400            (100654 /sec)
decisions             : 504            (0.00 % random) (126824 /sec)
propagations          : 9624           (2421741 /sec)
conflict literals     : 3005           (19.22 % deleted)
Memory used           : 13.00 MB
CPU time              : 0.003974 s

SATISFIABLE
